16
0.00000 3.135
C -0.61673444 -1.52294251 0.40533963
C -1.50345349 1.39661941 0.55128994
C -1.76088541 0.52772943 -0.42723445
C -1.55253093 -0.92936286 -0.33719061
C 2.84115850 -0.31828446 0.00937192
C 2.18608199 0.79841845 -0.28642527
H -2.16655309 0.89765697 -1.36894529
H -2.21496209 -1.54568212 -0.94464706
H -0.53093762 -2.60541500 0.44340407
H -1.65647620 2.46423858 0.42043611
H 0.09611089 -0.94743972 0.99243307
H -1.14104265 1.06543093 1.52213617
H 2.37149853 -1.29501682 -0.08452817
H 1.15409928 0.78401193 -0.63069208
H 3.87139384 -0.30665371 0.35775125
H 2.65505177 1.77580419 -0.19825509
16
0.48225 0.853
C -0.62167778 -1.48675580 0.32402334
C -1.46608777 1.37307715 0.48379179
C -1.70281080 0.48372238 -0.34250425
C -1.49079100 -0.88187362 -0.26211677
C 2.72034858 -0.27012982 0.00160919
C 2.18622749 0.74457161 -0.23696054
H -2.28809511 0.92623456 -1.33104644
H -2.27248271 -1.58663906 -0.91098589
H -0.43837790 -2.66992006 0.28247438
H -1.61527047 2.53097667 0.29690325
H 0.14498535 -0.95877414 1.08018574
H -1.02155074 1.09530670 1.56658779
H 2.31232258 -1.34523752 -0.13433448
H 1.09160863 0.73541389 -0.74329393
H 3.82538707 -0.25142102 0.51072935
H 2.66808347 1.80056078 -0.16081837
16
0.89723 0.259
C -0.61444751 -1.45965812 0.26099065
C -1.45122916 1.33864291 0.42748672
C -1.64329233 0.51654016 -0.27098978
C -1.42127658 -0.90532819 -0.20039281
C 2.60178816 -0.22331542 0.00029042
C 2.15834839 0.69697241 -0.18224049
H -2.31865877 0.86192247 -1.24105120
H -2.23446674 -1.58589517 -0.83891872
H -0.38239888 -2.63914676 0.12221287
H -1.54403234 2.54809117 0.21013388
H 0.16489988 -1.01803586 1.12614932
H -0.96721388 1.19346408 1.53782569
H 2.27985564 -1.39044029 -0.17977608
H 1.06476479 0.71594499 -0.80239447
H 3.68350075 -0.23334448 0.56971936
H 2.65567746 1.82269878 -0.11480120
16
1.26019 0.161
C -0.58390558 -1.44202535 0.20793595
C -1.38821600 1.34103870 0.38097217
C -1.59479280 0.53027085 -0.21895511
C -1.38061854 -0.90279942 -0.17814272
C 2.50747293 -0.20093416 0.02176766
C 2.09880659 0.68708870 -0.15679334
H -2.36949439 0.83101875 -1.14977410
H -2.21294283 -1.58706341 -0.78779769
H -0.33934306 -2.61577481 0.00274110
H -1.45215148 2.53409567 0.16524048
H 0.15300664 -1.13030536 1.13142703
H -0.91605006 1.28576100 1.50971870
H 2.29756667 -1.37421500 -0.17642458
H 1.07823151 0.69402714 -0.83756380
H 3.55582500 -0.21129788 0.64841809
H 2.57842426 1.80022729 -0.13852568
16
1.54915 0.154
C -0.54266533 -1.44163611 0.17757369
C -1.31644548 1.35265367 0.36573327
C -1.56975154 0.52154594 -0.19878821
C -1.35351689 -0.89560646 -0.16718736
C 2.43602212 -0.19889483 0.05552666
C 2.03661446 0.69439698 -0.14114625
H -2.40323131 0.80643320 -1.07551980
H -2.20884975 -1.57539904 -0.74667236
H -0.30056530 -2.60011586 -0.09406382
H -1.39774844 2.53446830 0.11408285
H 0.16394720 -1.21284336 1.14618070
H -0.85965336 1.34392665 1.49198785
H 2.29909434 -1.37463302 -0.19006553
H 1.05955268 0.68642510 -0.89467347
H 3.45527769 -0.20166085 0.73136335
H 2.53373779 1.80005240 -0.15008741
16
1.85521 0.147
C -0.50081557 -1.44323046 0.14629650
C -1.24245325 1.36292365 0.34138963
C -1.53835227 0.51227830 -0.17307381
C -1.32511743 -0.88684190 -0.15383531
C 2.35792317 -0.19488843 0.08963635
C 1.96679516 0.69951659 -0.12703533
H -2.42979770 0.78682999 -0.99708983
H -2.20618071 -1.56400044 -0.69894315
H -0.25962048 -2.58362593 -0.19083851
H -1.34249892 2.53580446 0.06026791
H 0.17733292 -1.30648892 1.15184044
H -0.79922836 1.40434713 1.47254732
H 2.30053539 -1.36700030 -0.20394793
H 1.04506277 0.67570051 -0.95065452
H 3.34317736 -0.18770648 0.81563006
H 2.48505677 1.79549493 -0.15794568
16
4.26890 0.000
C -0.13961850 -1.36522425 0.00710413
C -0.69276455 1.34787979 0.12348376
C -1.28951297 0.50624085 -0.01101570
C -1.04996855 -0.85995355 -0.03859673
C 1.61996328 -0.20596730 0.23946264
C 1.33595668 0.71044405 -0.09528373
H -2.45861672 0.71734967 -0.35837407
H -2.06403252 -1.50593447 -0.32308858
H 0.11387935 -2.26539257 -0.77472344
H -0.90874645 2.46789567 -0.29400910
H 0.26713678 -2.01127253 0.95873965
H -0.37638387 1.72377560 1.24871724
H 2.31742006 -1.13042199 -0.14309481
H 1.01022923 0.62314585 -1.30109476
H 2.22984692 -0.16206274 1.30970146
H 2.11703070 1.64861061 -0.12368380
16
4.60867 0.000
C -0.08499483 -1.36895433 0.01145374
C -0.60211495 1.35360004 0.09282169
C -1.27715177 0.47496693 0.01040603
C -1.03467072 -0.84712039 -0.02404636
C 1.53685608 -0.20693609 0.24382748
C 1.26055430 0.70542494 -0.11212747
H -2.46521076 0.74011803 -0.28901960
H -2.04487849 -1.51684826 -0.29323198
H 0.18704902 -2.20905011 -0.84676367
H -0.86575573 2.47467818 -0.34321105
H 0.29200027 -2.11149803 0.92693780
H -0.31494343 1.75711329 1.23219904
H 2.31849922 -1.07891176 -0.10088002
H 1.01575970 0.62891840 -1.34063559
H 2.04552704 -0.18239339 1.36181965
H 2.06529391 1.62600524 -0.10530553
16
4.94212 0.075
C -0.01707349 -1.37553768 0.00756302
C -0.50732989 1.37391693 0.07638098
C -1.27837857 0.42870589 0.01477583
C -1.03939508 -0.82979371 -0.00723274
C 1.45107092 -0.22604115 0.24421765
C 1.17419716 0.72086422 -0.12845469
H -2.44217149 0.74215091 -0.19904556
H -2.03111161 -1.53616064 -0.26817335
H 0.24126336 -2.12989692 -0.88877821
H -0.79565494 2.44013498 -0.37710779
H 0.29472240 -2.18236594 0.85817320
H -0.28464465 1.78253821 1.19831814
H 2.32065274 -1.02317314 -0.06234877
H 1.03133218 0.64233977 -1.36039746
H 1.87787810 -0.20398021 1.40547971
H 2.03646171 1.61541119 -0.08912578
16
5.31845 0.536
C 0.05880691 -1.40969204 -0.01800910
C -0.41027564 1.40851001 0.07878203
C -1.31454058 0.36897217 0.04597925
C -1.08425398 -0.77258277 -0.02160735
C 1.40459207 -0.29244991 0.30608864
C 1.11709247 0.77409687 -0.18091844
H -2.46435895 0.79263320 -0.12735127
H -2.03256283 -1.53862329 -0.21964243
H 0.33949714 -2.12043296 -0.96804352
H -0.74176293 2.42838659 -0.45728029
H 0.32777615 -2.27328255 0.84351151
H -0.25487370 1.84870779 1.19616729
H 2.35280512 -1.01973922 -0.04514215
H 0.99944441 0.62519558 -1.42450042
H 1.74778611 -0.19802849 1.48923892
H 1.98664709 1.61744172 -0.07302852
16
5.80673 0.972
C 0.14367090 -1.45435362 -0.03676739
C -0.31586803 1.42479653 0.09268492
C -1.35304451 0.37729937 0.00350616
C -1.12329098 -0.83903689 0.01861243
C 1.35299276 -0.37843321 0.33919217
C 1.08766535 0.81974740 -0.24795160
H -2.47939932 0.83180196 -0.01683392
H -2.06409737 -1.60910951 -0.15580900
H 0.44102464 -1.99562789 -1.06441376
H -0.65397260 2.37368457 -0.55081605
H 0.30446746 -2.34205130 0.73810769
H -0.20035506 1.89910195 1.20006946
H 2.37977866 -0.93683369 0.03680056
H 1.03326691 0.67212925 -1.42593674
H 1.50846768 -0.24089025 1.53054397
H 1.97051237 1.63688803 -0.03674474
16
6.40468 2.701
C 0.25860317 -1.48157820 -0.05415635
C -0.28746052 1.45947086 0.10165041
C -1.37335589 0.41471969 0.05135570
C -1.12906209 -0.89257044 -0.03509455
C 1.31465555 -0.46193085 0.38007632
C 1.07358216 0.88539917 -0.29965439
H -2.40364231 0.76719342 0.08650463
H -1.96365847 -1.59066908 -0.09033773
H 0.48334265 -1.85216292 -1.06552679
H -0.55367413 2.29954476 -0.55303113
H 0.29248439 -2.36353266 0.59871631
H -0.23227125 1.88055597 1.11699386
H 2.31913905 -0.83952455 0.15549965
H 1.10181138 0.74843376 -1.38941850
H 1.26025132 -0.32889112 1.46930017
H 1.87107385 1.59465488 -0.04863345
