16
0.00000 2.876
C -0.61673444 -1.52294251 0.40533963
C -1.50345349 1.39661941 0.55128994
C -1.76088541 0.52772943 -0.42723445
C -1.55253093 -0.92936286 -0.33719061
C 2.84115850 -0.31828446 0.00937192
C 2.18608199 0.79841845 -0.28642527
H -2.16655309 0.89765697 -1.36894529
H -2.21496209 -1.54568212 -0.94464706
H -0.53093762 -2.60541500 0.44340407
H -1.65647620 2.46423858 0.42043611
H 0.09611089 -0.94743972 0.99243307
H -1.14104265 1.06543093 1.52213617
H 2.37149853 -1.29501682 -0.08452817
H 1.15409928 0.78401193 -0.63069208
H 3.87139384 -0.30665371 0.35775125
H 2.65505177 1.77580419 -0.19825509
16
0.48225 0.593
C -0.62167778 -1.48675580 0.32402334
C -1.46608777 1.37307715 0.48379179
C -1.70281080 0.48372238 -0.34250425
C -1.49079100 -0.88187362 -0.26211677
C 2.72034858 -0.27012982 0.00160919
C 2.18622749 0.74457161 -0.23696054
H -2.28809511 0.92623456 -1.33104644
H -2.27248271 -1.58663906 -0.91098589
H -0.43837790 -2.66992006 0.28247438
H -1.61527047 2.53097667 0.29690325
H 0.14498535 -0.95877414 1.08018574
H -1.02155074 1.09530670 1.56658779
H 2.31232258 -1.34523752 -0.13433448
H 1.09160863 0.73541389 -0.74329393
H 3.82538707 -0.25142102 0.51072935
H 2.66808347 1.80056078 -0.16081837
16
0.89723 0.000
C -0.61444751 -1.45965812 0.26099065
C -1.45122916 1.33864291 0.42748672
C -1.64329233 0.51654016 -0.27098978
C -1.42127658 -0.90532819 -0.20039281
C 2.60178816 -0.22331542 0.00029042
C 2.15834839 0.69697241 -0.18224049
H -2.31865877 0.86192247 -1.24105120
H -2.23446674 -1.58589517 -0.83891872
H -0.38239888 -2.63914676 0.12221287
H -1.54403234 2.54809117 0.21013388
H 0.16489988 -1.01803586 1.12614932
H -0.96721388 1.19346408 1.53782569
H 2.27985564 -1.39044029 -0.17977608
H 1.06476479 0.71594499 -0.80239447
H 3.68350075 -0.23334448 0.56971936
H 2.65567746 1.82269878 -0.11480120
16
5.13065 0.277
C 0.05880691 -1.40969204 -0.01800910
C -0.41027564 1.40851001 0.07878203
C -1.31454058 0.36897217 0.04597925
C -1.08425398 -0.77258277 -0.02160735
C 1.40459207 -0.29244991 0.30608864
C 1.11709247 0.77409687 -0.18091844
H -2.46435895 0.79263320 -0.12735127
H -2.03256283 -1.53862329 -0.21964243
H 0.33949714 -2.12043296 -0.96804352
H -0.74176293 2.42838659 -0.45728029
H 0.32777615 -2.27328255 0.84351151
H -0.25487370 1.84870779 1.19616729
H 2.35280512 -1.01973922 -0.04514215
H 0.99944441 0.62519558 -1.42450042
H 1.74778611 -0.19802849 1.48923892
H 1.98664709 1.61744172 -0.07302852
16
5.61894 0.713
C 0.14367090 -1.45435362 -0.03676739
C -0.31586803 1.42479653 0.09268492
C -1.35304451 0.37729937 0.00350616
C -1.12329098 -0.83903689 0.01861243
C 1.35299276 -0.37843321 0.33919217
C 1.08766535 0.81974740 -0.24795160
H -2.47939932 0.83180196 -0.01683392
H -2.06409737 -1.60910951 -0.15580900
H 0.44102464 -1.99562789 -1.06441376
H -0.65397260 2.37368457 -0.55081605
H 0.30446746 -2.34205130 0.73810769
H -0.20035506 1.89910195 1.20006946
H 2.37977866 -0.93683369 0.03680056
H 1.03326691 0.67212925 -1.42593674
H 1.50846768 -0.24089025 1.53054397
H 1.97051237 1.63688803 -0.03674474
16
6.21688 2.442
C 0.25860317 -1.48157820 -0.05415635
C -0.28746052 1.45947086 0.10165041
C -1.37335589 0.41471969 0.05135570
C -1.12906209 -0.89257044 -0.03509455
C 1.31465555 -0.46193085 0.38007632
C 1.07358216 0.88539917 -0.29965439
H -2.40364231 0.76719342 0.08650463
H -1.96365847 -1.59066908 -0.09033773
H 0.48334265 -1.85216292 -1.06552679
H -0.55367413 2.29954476 -0.55303113
H 0.29248439 -2.36353266 0.59871631
H -0.23227125 1.88055597 1.11699386
H 2.31913905 -0.83952455 0.15549965
H 1.10181138 0.74843376 -1.38941850
H 1.26025132 -0.32889112 1.46930017
H 1.87107385 1.59465488 -0.04863345
